
******************************************************************************
This program contains Ipopt, a library for large-scale nonlinear optimization.
 Ipopt is released as open source code under the Eclipse Public License (EPL).
         For more information visit http://projects.coin-or.org/Ipopt

This version of Ipopt was compiled from source code available at
    https://github.com/IDAES/Ipopt as part of the Institute for the Design of
    Advanced Energy Systems Process Systems Engineering Framework (IDAES PSE
    Framework) Copyright (c) 2018-2019. See https://github.com/IDAES/idaes-pse.

This version of Ipopt was compiled using HSL, a collection of Fortran codes
    for large-scale scientific computation.  All technical papers, sales and
    publicity material resulting from use of the HSL codes within IPOPT must
    contain the following acknowledgement:
        HSL, a collection of Fortran codes for large-scale scientific
        computation. See http://www.hsl.rl.ac.uk.
******************************************************************************

This is Ipopt version 3.13.2, running with linear solver ma27.

Number of nonzeros in equality constraint Jacobian...:      928
Number of nonzeros in inequality constraint Jacobian.:        0
Number of nonzeros in Lagrangian Hessian.............:      806

Total number of variables............................:      403
                     variables with only lower bounds:      124
                variables with lower and upper bounds:      217
                     variables with only upper bounds:        0
Total number of equality constraints.................:      402
Total number of inequality constraints...............:        0
        inequality constraints with only lower bounds:        0
   inequality constraints with lower and upper bounds:        0
        inequality constraints with only upper bounds:        0

iter    objective    inf_pr   inf_du lg(mu)  ||d||  lg(rg) alpha_du alpha_pr  ls
   0  0.0000000e+00 1.32e+00 1.13e-14  -1.0 0.00e+00    -  0.00e+00 0.00e+00   0
   1  4.6065541e-02 9.71e-01 8.53e+03  -1.0 7.15e+04    -  4.87e-01 2.81e-01h  2
   2  1.6254531e-01 6.52e-01 4.98e+04  -1.0 4.68e+04    -  5.97e-01 3.53e-01h  1
   3  2.1061950e-01 6.10e-01 7.32e+04  -1.0 1.73e+05    -  1.68e-01 6.67e-02h  1
   4  4.5650941e-01 5.43e-01 6.70e+04  -1.0 1.64e+05    -  4.37e-01 1.13e-01h  1
   5  9.7250917e+00 1.15e-01 3.37e+04  -1.0 1.48e+05    -  6.44e-01 9.90e-01h  1
   6  1.1267996e+01 7.22e-03 3.96e+03  -1.0 1.37e+04    -  9.55e-01 9.90e-01h  1
   7  1.1297215e+01 9.79e-05 5.08e+02  -1.0 2.46e+02    -  9.88e-01 9.90e-01h  1
   8  1.1302995e+01 9.48e-05 2.49e+07  -1.0 1.65e+03    -  9.90e-01 3.09e-02f  6
   9  1.1444292e+01 8.98e-05 3.12e+07  -1.0 2.01e+04    -  3.55e-01 6.19e-02f  5
iter    objective    inf_pr   inf_du lg(mu)  ||d||  lg(rg) alpha_du alpha_pr  ls
  10  1.1607805e+01 8.89e-05 3.25e+05  -1.0 1.44e+03    -  9.90e-01 9.90e-01h  1
  11  1.1909589e+01 3.23e-05 2.86e+07  -1.0 2.64e+03    -  1.00e+00 9.90e-01H  1
  12  1.1815309e+01 1.02e-07 2.86e+09  -1.0 8.21e+02    -  1.00e+00 9.90e-01H  1
  13  1.1802689e+01 1.38e-09 2.86e+11  -1.0 1.10e+02    -  1.00e+00 9.90e-01H  1
In iteration 13, 31 Slacks too small, adjusting variable bounds
  14  1.1802369e+01 1.34e-10 2.86e+13  -1.0 2.80e+00    -  1.00e+00 9.90e-01h  1
  15  1.1802365e+01 6.87e-12 1.76e-01  -1.0 2.87e-02    -  1.00e+00 1.00e+00h  1
  16  1.1802117e+01 8.46e-11 2.86e+13  -9.0 1.02e+04    -  9.80e-01 2.11e-04f 12
  17  1.1801993e+01 1.06e-10 2.91e+13  -9.0 7.18e+03    -  9.90e-01 1.49e-04f 13
  18  1.1801869e+01 1.27e-10 2.91e+13  -9.0 5.33e+03    -  9.94e-01 2.01e-04f 13
  19  1.1801745e+01 1.48e-10 2.91e+13  -9.0 4.68e+03    -  1.00e+00 2.29e-04f 13
iter    objective    inf_pr   inf_du lg(mu)  ||d||  lg(rg) alpha_du alpha_pr  ls
  20  1.1801683e+01 1.54e-10 2.91e+13  -9.0 4.48e+03    -  1.00e+00 1.20e-04f 14
  21  1.1299414e+01 7.59e-04 1.90e+11  -9.0 4.42e+03    -  1.00e+00 9.93e-01f  1
  22  1.1295277e+01 3.32e-07 2.29e-02  -9.0 3.60e+01    -  1.00e+00 1.00e+00h  1
  23  1.1295277e+01 2.98e-12 3.26e-09  -9.0 6.36e-04    -  1.00e+00 1.00e+00h  1

Number of Iterations....: 23

                                   (scaled)                 (unscaled)
Objective...............:   1.1295277066736496e+01    1.1295277066736496e+01
Dual infeasibility......:   3.2592002812403471e-09    3.2592002812403471e-09
Constraint violation....:   2.9780622412545199e-12    2.9780622412545199e-12
Complementarity.........:   9.0914712402819143e-10    9.0914712402819143e-10
Overall NLP error.......:   1.9222714988408255e-11    3.2592002812403471e-09


Number of objective function evaluations             = 117
Number of objective gradient evaluations             = 24
Number of equality constraint evaluations            = 117
Number of inequality constraint evaluations          = 0
Number of equality constraint Jacobian evaluations   = 24
Number of inequality constraint Jacobian evaluations = 0
Number of Lagrangian Hessian evaluations             = 23
Total CPU secs in IPOPT (w/o function evaluations)   =      0.050
Total CPU secs in NLP function evaluations           =      1.141

EXIT: Optimal Solution Found.
